(get-info :version)
; (:version "4.8.6")
; Started: 2022-10-18 14:13:39
; Silicon.version: 1.1-SNAPSHOT (4dbb81fc@(detached))
; Input file: -
; Verifier id: 00
; ------------------------------------------------------------
; Begin preamble
; ////////// Static preamble
; 
; ; /z3config.smt2
(set-option :print-success true) ; Boogie: false
(set-option :global-decls true) ; Boogie: default
(set-option :auto_config false) ; Usually a good idea
(set-option :smt.restart_strategy 0)
(set-option :smt.restart_factor |1.5|)
(set-option :smt.case_split 3)
(set-option :smt.delay_units true)
(set-option :smt.delay_units_threshold 16)
(set-option :nnf.sk_hack true)
(set-option :type_check true)
(set-option :smt.bv.reflect true)
(set-option :smt.mbqi false)
(set-option :smt.qi.eager_threshold 100)
(set-option :smt.qi.cost "(+ weight generation)")
(set-option :smt.qi.max_multi_patterns 1000)
(set-option :smt.phase_selection 0) ; default: 3, Boogie: 0
(set-option :sat.phase caching)
(set-option :sat.random_seed 0)
(set-option :nlsat.randomize true)
(set-option :nlsat.seed 0)
(set-option :nlsat.shuffle_vars false)
(set-option :fp.spacer.order_children 0) ; Not available with Z3 4.5
(set-option :fp.spacer.random_seed 0) ; Not available with Z3 4.5
(set-option :smt.arith.random_initial_value true) ; Boogie: true
(set-option :smt.random_seed 0)
(set-option :sls.random_offset true)
(set-option :sls.random_seed 0)
(set-option :sls.restart_init false)
(set-option :sls.walksat_ucb true)
(set-option :model.v2 true)
; 
; ; /preamble.smt2
(declare-datatypes () ((
    $Snap ($Snap.unit)
    ($Snap.combine ($Snap.first $Snap) ($Snap.second $Snap)))))
(declare-sort $Ref 0)
(declare-const $Ref.null $Ref)
(declare-sort $FPM)
(declare-sort $PPM)
(define-sort $Perm () Real)
(define-const $Perm.Write $Perm 1.0)
(define-const $Perm.No $Perm 0.0)
(define-fun $Perm.isValidVar ((p $Perm)) Bool
	(<= $Perm.No p))
(define-fun $Perm.isReadVar ((p $Perm) (ub $Perm)) Bool
    (and ($Perm.isValidVar p)
         (not (= p $Perm.No))
         (< p $Perm.Write)))
(define-fun $Perm.min ((p1 $Perm) (p2 $Perm)) Real
    (ite (<= p1 p2) p1 p2))
(define-fun $Math.min ((a Int) (b Int)) Int
    (ite (<= a b) a b))
(define-fun $Math.clip ((a Int)) Int
    (ite (< a 0) 0 a))
; ////////// Sorts
(declare-sort frac)
(declare-sort TYPE)
(declare-sort zfrac)
(declare-sort $FVF<$Ref>)
; ////////// Sort wrappers
; Declaring additional sort wrappers
(declare-fun $SortWrappers.IntTo$Snap (Int) $Snap)
(declare-fun $SortWrappers.$SnapToInt ($Snap) Int)
(assert (forall ((x Int)) (!
    (= x ($SortWrappers.$SnapToInt($SortWrappers.IntTo$Snap x)))
    :pattern (($SortWrappers.IntTo$Snap x))
    :qid |$Snap.$SnapToIntTo$Snap|
    )))
(assert (forall ((x $Snap)) (!
    (= x ($SortWrappers.IntTo$Snap($SortWrappers.$SnapToInt x)))
    :pattern (($SortWrappers.$SnapToInt x))
    :qid |$Snap.IntTo$SnapToInt|
    )))
(declare-fun $SortWrappers.BoolTo$Snap (Bool) $Snap)
(declare-fun $SortWrappers.$SnapToBool ($Snap) Bool)
(assert (forall ((x Bool)) (!
    (= x ($SortWrappers.$SnapToBool($SortWrappers.BoolTo$Snap x)))
    :pattern (($SortWrappers.BoolTo$Snap x))
    :qid |$Snap.$SnapToBoolTo$Snap|
    )))
(assert (forall ((x $Snap)) (!
    (= x ($SortWrappers.BoolTo$Snap($SortWrappers.$SnapToBool x)))
    :pattern (($SortWrappers.$SnapToBool x))
    :qid |$Snap.BoolTo$SnapToBool|
    )))
(declare-fun $SortWrappers.$RefTo$Snap ($Ref) $Snap)
(declare-fun $SortWrappers.$SnapTo$Ref ($Snap) $Ref)
(assert (forall ((x $Ref)) (!
    (= x ($SortWrappers.$SnapTo$Ref($SortWrappers.$RefTo$Snap x)))
    :pattern (($SortWrappers.$RefTo$Snap x))
    :qid |$Snap.$SnapTo$RefTo$Snap|
    )))
(assert (forall ((x $Snap)) (!
    (= x ($SortWrappers.$RefTo$Snap($SortWrappers.$SnapTo$Ref x)))
    :pattern (($SortWrappers.$SnapTo$Ref x))
    :qid |$Snap.$RefTo$SnapTo$Ref|
    )))
(declare-fun $SortWrappers.$PermTo$Snap ($Perm) $Snap)
(declare-fun $SortWrappers.$SnapTo$Perm ($Snap) $Perm)
(assert (forall ((x $Perm)) (!
    (= x ($SortWrappers.$SnapTo$Perm($SortWrappers.$PermTo$Snap x)))
    :pattern (($SortWrappers.$PermTo$Snap x))
    :qid |$Snap.$SnapTo$PermTo$Snap|
    )))
(assert (forall ((x $Snap)) (!
    (= x ($SortWrappers.$PermTo$Snap($SortWrappers.$SnapTo$Perm x)))
    :pattern (($SortWrappers.$SnapTo$Perm x))
    :qid |$Snap.$PermTo$SnapTo$Perm|
    )))
; Declaring additional sort wrappers
(declare-fun $SortWrappers.fracTo$Snap (frac) $Snap)
(declare-fun $SortWrappers.$SnapTofrac ($Snap) frac)
(assert (forall ((x frac)) (!
    (= x ($SortWrappers.$SnapTofrac($SortWrappers.fracTo$Snap x)))
    :pattern (($SortWrappers.fracTo$Snap x))
    :qid |$Snap.$SnapTofracTo$Snap|
    )))
(assert (forall ((x $Snap)) (!
    (= x ($SortWrappers.fracTo$Snap($SortWrappers.$SnapTofrac x)))
    :pattern (($SortWrappers.$SnapTofrac x))
    :qid |$Snap.fracTo$SnapTofrac|
    )))
(declare-fun $SortWrappers.TYPETo$Snap (TYPE) $Snap)
(declare-fun $SortWrappers.$SnapToTYPE ($Snap) TYPE)
(assert (forall ((x TYPE)) (!
    (= x ($SortWrappers.$SnapToTYPE($SortWrappers.TYPETo$Snap x)))
    :pattern (($SortWrappers.TYPETo$Snap x))
    :qid |$Snap.$SnapToTYPETo$Snap|
    )))
(assert (forall ((x $Snap)) (!
    (= x ($SortWrappers.TYPETo$Snap($SortWrappers.$SnapToTYPE x)))
    :pattern (($SortWrappers.$SnapToTYPE x))
    :qid |$Snap.TYPETo$SnapToTYPE|
    )))
(declare-fun $SortWrappers.zfracTo$Snap (zfrac) $Snap)
(declare-fun $SortWrappers.$SnapTozfrac ($Snap) zfrac)
(assert (forall ((x zfrac)) (!
    (= x ($SortWrappers.$SnapTozfrac($SortWrappers.zfracTo$Snap x)))
    :pattern (($SortWrappers.zfracTo$Snap x))
    :qid |$Snap.$SnapTozfracTo$Snap|
    )))
(assert (forall ((x $Snap)) (!
    (= x ($SortWrappers.zfracTo$Snap($SortWrappers.$SnapTozfrac x)))
    :pattern (($SortWrappers.$SnapTozfrac x))
    :qid |$Snap.zfracTo$SnapTozfrac|
    )))
; Declaring additional sort wrappers
(declare-fun $SortWrappers.$FVF<$Ref>To$Snap ($FVF<$Ref>) $Snap)
(declare-fun $SortWrappers.$SnapTo$FVF<$Ref> ($Snap) $FVF<$Ref>)
(assert (forall ((x $FVF<$Ref>)) (!
    (= x ($SortWrappers.$SnapTo$FVF<$Ref>($SortWrappers.$FVF<$Ref>To$Snap x)))
    :pattern (($SortWrappers.$FVF<$Ref>To$Snap x))
    :qid |$Snap.$SnapTo$FVF<$Ref>To$Snap|
    )))
(assert (forall ((x $Snap)) (!
    (= x ($SortWrappers.$FVF<$Ref>To$Snap($SortWrappers.$SnapTo$FVF<$Ref> x)))
    :pattern (($SortWrappers.$SnapTo$FVF<$Ref> x))
    :qid |$Snap.$FVF<$Ref>To$SnapTo$FVF<$Ref>|
    )))
; ////////// Symbols
(declare-fun frac_val<Perm> (frac) $Perm)
(declare-fun zfrac_val<Perm> (zfrac) $Perm)
(declare-const class_java_DOT_lang_DOT_Object<TYPE> TYPE)
(declare-const class___return_random_0_ex<TYPE> TYPE)
(declare-const class___return_parseInt_1_ex<TYPE> TYPE)
(declare-const class_demo_DOT_Adder_DOT_Adder_DOT_abstr_DOT_Utilities<TYPE> TYPE)
(declare-const class___return_internal_receiveExternalChoice_2_ex<TYPE> TYPE)
(declare-const class___return_internal_addFromC_3_ex<TYPE> TYPE)
(declare-const class_demo_DOT_Adder_DOT_Adder_DOT_abstr_DOT_AdderS<TYPE> TYPE)
(declare-const class_java_DOT_lang_DOT_String<TYPE> TYPE)
(declare-const class_java_DOT_lang_DOT_Throwable<TYPE> TYPE)
(declare-const class_java_DOT_lang_DOT_Exception<TYPE> TYPE)
(declare-const class_AddPayload<TYPE> TYPE)
(declare-const class_java_DOT_util_DOT_Comparator<TYPE> TYPE)
(declare-const class_EncodedGlobalVariables<TYPE> TYPE)
(declare-fun directSuperclass<TYPE> (TYPE) TYPE)
(declare-fun type_of<TYPE> ($Ref) TYPE)
; Declaring symbols related to program functions (from program analysis)
(declare-fun instanceof_TYPE_TYPE ($Snap TYPE TYPE) Bool)
(declare-fun instanceof_TYPE_TYPE%limited ($Snap TYPE TYPE) Bool)
(declare-fun instanceof_TYPE_TYPE%stateless (TYPE TYPE) Bool)
(declare-fun new_frac ($Snap $Perm) frac)
(declare-fun new_frac%limited ($Snap $Perm) frac)
(declare-fun new_frac%stateless ($Perm) Bool)
(declare-fun new_zfrac ($Snap $Perm) zfrac)
(declare-fun new_zfrac%limited ($Snap $Perm) zfrac)
(declare-fun new_zfrac%stateless ($Perm) Bool)
; Snapshot variable to be used during function verification
(declare-fun s@$ () $Snap)
; Declaring predicate trigger functions
; ////////// Uniqueness assumptions from domains
(assert (distinct class_java_DOT_lang_DOT_Object<TYPE> class___return_random_0_ex<TYPE> class___return_parseInt_1_ex<TYPE> class_demo_DOT_Adder_DOT_Adder_DOT_abstr_DOT_Utilities<TYPE> class___return_internal_receiveExternalChoice_2_ex<TYPE> class___return_internal_addFromC_3_ex<TYPE> class_demo_DOT_Adder_DOT_Adder_DOT_abstr_DOT_AdderS<TYPE> class_java_DOT_lang_DOT_String<TYPE> class_java_DOT_lang_DOT_Throwable<TYPE> class_java_DOT_lang_DOT_Exception<TYPE> class_AddPayload<TYPE> class_java_DOT_util_DOT_Comparator<TYPE> class_EncodedGlobalVariables<TYPE>))
; ////////// Axioms
(assert (forall ((a frac) (b frac)) (!
  (= (= (frac_val<Perm> a) (frac_val<Perm> b)) (= a b))
  :pattern ((frac_val<Perm> a) (frac_val<Perm> b))
  :qid |prog.frac_eq|)))
(assert (forall ((a frac)) (!
  (and (< $Perm.No (frac_val<Perm> a)) (<= (frac_val<Perm> a) $Perm.Write))
  :pattern ((frac_val<Perm> a))
  :qid |prog.frac_bound|)))
(assert (forall ((a zfrac) (b zfrac)) (!
  (= (= (zfrac_val<Perm> a) (zfrac_val<Perm> b)) (= a b))
  :pattern ((zfrac_val<Perm> a) (zfrac_val<Perm> b))
  :qid |prog.zfrac_eq|)))
(assert (forall ((a zfrac)) (!
  (and (<= $Perm.No (zfrac_val<Perm> a)) (<= (zfrac_val<Perm> a) $Perm.Write))
  :pattern ((zfrac_val<Perm> a))
  :qid |prog.zfrac_bound|)))
(assert (=
  (directSuperclass<TYPE> (as class_java_DOT_lang_DOT_Object<TYPE>  TYPE))
  (as class_java_DOT_lang_DOT_Object<TYPE>  TYPE)))
(assert (=
  (directSuperclass<TYPE> (as class___return_random_0_ex<TYPE>  TYPE))
  (as class_java_DOT_lang_DOT_Object<TYPE>  TYPE)))
(assert (=
  (directSuperclass<TYPE> (as class___return_parseInt_1_ex<TYPE>  TYPE))
  (as class_java_DOT_lang_DOT_Object<TYPE>  TYPE)))
(assert (=
  (directSuperclass<TYPE> (as class_demo_DOT_Adder_DOT_Adder_DOT_abstr_DOT_Utilities<TYPE>  TYPE))
  (as class_java_DOT_lang_DOT_Object<TYPE>  TYPE)))
(assert (=
  (directSuperclass<TYPE> (as class___return_internal_receiveExternalChoice_2_ex<TYPE>  TYPE))
  (as class_java_DOT_lang_DOT_Object<TYPE>  TYPE)))
(assert (=
  (directSuperclass<TYPE> (as class___return_internal_addFromC_3_ex<TYPE>  TYPE))
  (as class_java_DOT_lang_DOT_Object<TYPE>  TYPE)))
(assert (=
  (directSuperclass<TYPE> (as class_demo_DOT_Adder_DOT_Adder_DOT_abstr_DOT_AdderS<TYPE>  TYPE))
  (as class_java_DOT_lang_DOT_Object<TYPE>  TYPE)))
(assert (=
  (directSuperclass<TYPE> (as class_java_DOT_lang_DOT_String<TYPE>  TYPE))
  (as class_java_DOT_lang_DOT_Object<TYPE>  TYPE)))
(assert (=
  (directSuperclass<TYPE> (as class_java_DOT_lang_DOT_Throwable<TYPE>  TYPE))
  (as class_java_DOT_lang_DOT_Object<TYPE>  TYPE)))
(assert (=
  (directSuperclass<TYPE> (as class_java_DOT_lang_DOT_Exception<TYPE>  TYPE))
  (as class_java_DOT_lang_DOT_Throwable<TYPE>  TYPE)))
(assert (=
  (directSuperclass<TYPE> (as class_AddPayload<TYPE>  TYPE))
  (as class_java_DOT_lang_DOT_Object<TYPE>  TYPE)))
(assert (=
  (directSuperclass<TYPE> (as class_java_DOT_util_DOT_Comparator<TYPE>  TYPE))
  (as class_java_DOT_lang_DOT_Object<TYPE>  TYPE)))
(assert (=
  (directSuperclass<TYPE> (as class_EncodedGlobalVariables<TYPE>  TYPE))
  (as class_java_DOT_lang_DOT_Object<TYPE>  TYPE)))
; End preamble
; ------------------------------------------------------------
; State saturation: after preamble
(set-option :timeout 100)
(check-sat)
; unknown
; ---------- FUNCTION instanceof_TYPE_TYPE----------
(declare-fun t@0@00 () TYPE)
(declare-fun u@1@00 () TYPE)
(declare-fun result@2@00 () Bool)
; ----- Well-definedness of specifications -----
(push) ; 1
(declare-const $t@7@00 $Snap)
(assert (= $t@7@00 $Snap.unit))
; [eval] result == (t == u || directSuperclass(t) == u)
; [eval] t == u || directSuperclass(t) == u
; [eval] t == u
(push) ; 2
; [then-branch: 0 | t@0@00 == u@1@00 | live]
; [else-branch: 0 | t@0@00 != u@1@00 | live]
(push) ; 3
; [then-branch: 0 | t@0@00 == u@1@00]
(assert (= t@0@00 u@1@00))
(pop) ; 3
(push) ; 3
; [else-branch: 0 | t@0@00 != u@1@00]
(assert (not (= t@0@00 u@1@00)))
; [eval] directSuperclass(t) == u
; [eval] directSuperclass(t)
(pop) ; 3
(pop) ; 2
; Joined path conditions
; Joined path conditions
(assert (= result@2@00 (or (= t@0@00 u@1@00) (= (directSuperclass<TYPE> t@0@00) u@1@00))))
(pop) ; 1
(assert (forall ((s@$ $Snap) (t@0@00 TYPE) (u@1@00 TYPE)) (!
  (=
    (instanceof_TYPE_TYPE%limited s@$ t@0@00 u@1@00)
    (instanceof_TYPE_TYPE s@$ t@0@00 u@1@00))
  :pattern ((instanceof_TYPE_TYPE s@$ t@0@00 u@1@00))
  )))
(assert (forall ((s@$ $Snap) (t@0@00 TYPE) (u@1@00 TYPE)) (!
  (instanceof_TYPE_TYPE%stateless t@0@00 u@1@00)
  :pattern ((instanceof_TYPE_TYPE%limited s@$ t@0@00 u@1@00))
  )))
(assert (forall ((s@$ $Snap) (t@0@00 TYPE) (u@1@00 TYPE)) (!
  (let ((result@2@00 (instanceof_TYPE_TYPE%limited s@$ t@0@00 u@1@00))) (=
    result@2@00
    (or (= t@0@00 u@1@00) (= (directSuperclass<TYPE> t@0@00) u@1@00))))
  :pattern ((instanceof_TYPE_TYPE%limited s@$ t@0@00 u@1@00))
  )))
; ---------- FUNCTION new_frac----------
(declare-fun x@3@00 () $Perm)
(declare-fun result@4@00 () frac)
; ----- Well-definedness of specifications -----
(push) ; 1
(assert (= s@$ ($Snap.combine ($Snap.first s@$) ($Snap.second s@$))))
(assert (= ($Snap.first s@$) $Snap.unit))
; [eval] 0 / 1 < x
(set-option :timeout 0)
(push) ; 2
(assert (not (not (= 1 0))))
(check-sat)
; unsat
(pop) ; 2
; 0.00s
; (get-info :all-statistics)
(get-info :all-statistics)
; (:added-eqs            20
;  :binary-propagations  79
;  :datatype-accessor-ax 3
;  :max-memory           3.54
;  :memory               3.21
;  :mk-bool-var          120
;  :mk-clause            1
;  :num-allocs           45888
;  :num-checks           1
;  :propagations         79
;  :rlimit-count         9142)
(assert (< $Perm.No x@3@00))
(assert (= ($Snap.second s@$) $Snap.unit))
; [eval] x <= 1 / 1
(push) ; 2
(assert (not (not (= 1 0))))
(check-sat)
; unsat
(pop) ; 2
; 0.00s
; (get-info :all-statistics)
(get-info :all-statistics)
; (:added-eqs            21
;  :arith-assert-lower   1
;  :binary-propagations  79
;  :datatype-accessor-ax 3
;  :max-memory           3.54
;  :memory               3.22
;  :mk-bool-var          122
;  :mk-clause            1
;  :num-allocs           46014
;  :num-checks           2
;  :propagations         79
;  :rlimit-count         9253)
(assert (<= x@3@00 $Perm.Write))
(declare-const $t@8@00 $Snap)
(assert (= $t@8@00 $Snap.unit))
; [eval] frac_val(result) == x
; [eval] frac_val(result)
(assert (= (frac_val<Perm> result@4@00) x@3@00))
(pop) ; 1
(assert (forall ((s@$ $Snap) (x@3@00 $Perm)) (!
  (= (new_frac%limited s@$ x@3@00) (new_frac s@$ x@3@00))
  :pattern ((new_frac s@$ x@3@00))
  )))
(assert (forall ((s@$ $Snap) (x@3@00 $Perm)) (!
  (new_frac%stateless x@3@00)
  :pattern ((new_frac%limited s@$ x@3@00))
  )))
(assert (forall ((s@$ $Snap) (x@3@00 $Perm)) (!
  (let ((result@4@00 (new_frac%limited s@$ x@3@00))) (implies
    (and (< $Perm.No x@3@00) (<= x@3@00 $Perm.Write))
    (= (frac_val<Perm> result@4@00) x@3@00)))
  :pattern ((new_frac%limited s@$ x@3@00))
  )))
; ---------- FUNCTION new_zfrac----------
(declare-fun x@5@00 () $Perm)
(declare-fun result@6@00 () zfrac)
; ----- Well-definedness of specifications -----
(push) ; 1
(assert (= s@$ ($Snap.combine ($Snap.first s@$) ($Snap.second s@$))))
(assert (= ($Snap.first s@$) $Snap.unit))
; [eval] 0 / 1 <= x
(push) ; 2
(assert (not (not (= 1 0))))
(check-sat)
; unsat
(pop) ; 2
; 0.00s
; (get-info :all-statistics)
(get-info :all-statistics)
; (:added-eqs            27
;  :arith-assert-lower   1
;  :binary-propagations  79
;  :datatype-accessor-ax 5
;  :max-memory           3.54
;  :memory               3.22
;  :mk-bool-var          127
;  :mk-clause            1
;  :num-allocs           46545
;  :num-checks           3
;  :propagations         79
;  :rlimit-count         9794)
(assert (<= $Perm.No x@5@00))
(assert (= ($Snap.second s@$) $Snap.unit))
; [eval] x <= 1 / 1
(push) ; 2
(assert (not (not (= 1 0))))
(check-sat)
; unsat
(pop) ; 2
; 0.00s
; (get-info :all-statistics)
(get-info :all-statistics)
; (:added-eqs            28
;  :arith-assert-lower   2
;  :binary-propagations  79
;  :datatype-accessor-ax 5
;  :max-memory           3.54
;  :memory               3.22
;  :mk-bool-var          129
;  :mk-clause            1
;  :num-allocs           46642
;  :num-checks           4
;  :propagations         79
;  :rlimit-count         9884)
(assert (<= x@5@00 $Perm.Write))
(declare-const $t@9@00 $Snap)
(assert (= $t@9@00 $Snap.unit))
; [eval] zfrac_val(result) == x
; [eval] zfrac_val(result)
(assert (= (zfrac_val<Perm> result@6@00) x@5@00))
(pop) ; 1
(assert (forall ((s@$ $Snap) (x@5@00 $Perm)) (!
  (= (new_zfrac%limited s@$ x@5@00) (new_zfrac s@$ x@5@00))
  :pattern ((new_zfrac s@$ x@5@00))
  )))
(assert (forall ((s@$ $Snap) (x@5@00 $Perm)) (!
  (new_zfrac%stateless x@5@00)
  :pattern ((new_zfrac%limited s@$ x@5@00))
  )))
(assert (forall ((s@$ $Snap) (x@5@00 $Perm)) (!
  (let ((result@6@00 (new_zfrac%limited s@$ x@5@00))) (implies
    (and (<= $Perm.No x@5@00) (<= x@5@00 $Perm.Write))
    (= (zfrac_val<Perm> result@6@00) x@5@00)))
  :pattern ((new_zfrac%limited s@$ x@5@00))
  )))
